c SAT Generator for power-law distributed variable frequencies
c -g u -v 20 -c 91 -k 3 -p 2.750000 -b 3.200000 -f /home/schmidt/Devel/ni-kop-sat/data/ensemble/ruf20-91/ruf20-91-609 -u 1 -U 1 -s 3868595842
p cnf 20 91
4 6 -14 0
9 -18 19 0
7 13 -19 0
9 -10 16 0
2 8 -20 0
2 18 19 0
-3 -10 -11 0
2 -3 4 0
12 13 -17 0
-1 11 13 0
-12 -16 19 0
-12 13 15 0
3 -7 -13 0
-5 -6 -20 0
-5 -7 -13 0
-7 13 19 0
-5 -12 -14 0
-1 -6 16 0
12 14 20 0
-3 -5 -16 0
-2 -15 19 0
-4 -6 -19 0
3 4 6 0
6 12 -20 0
-8 -14 -18 0
-8 -9 18 0
-15 -19 -20 0
-12 13 -19 0
-2 13 -16 0
2 12 17 0
3 -7 8 0
7 -8 -11 0
6 -8 -10 0
3 7 -17 0
-3 9 12 0
2 6 10 0
3 5 -19 0
5 -10 -12 0
9 13 16 0
6 17 20 0
-3 16 -19 0
-4 17 -19 0
-2 12 -18 0
8 10 17 0
3 7 17 0
-1 -2 -6 0
3 -13 -20 0
-15 19 20 0
-1 7 -13 0
-10 -17 18 0
3 -7 -16 0
5 -17 -18 0
-5 13 -19 0
-3 -9 18 0
-13 14 -20 0
-3 9 -16 0
-8 -13 -20 0
-1 11 -15 0
-4 -7 -17 0
1 9 -17 0
3 -7 -12 0
-9 17 19 0
2 -11 19 0
1 3 -16 0
1 -3 -5 0
-1 5 15 0
10 -11 14 0
2 13 -19 0
6 -8 -14 0
6 9 -17 0
-9 -11 -19 0
-2 5 -11 0
-4 -13 -15 0
11 12 18 0
6 12 17 0
-8 11 -15 0
1 12 -14 0
-9 10 -20 0
4 -11 -16 0
1 -5 -10 0
-1 -2 -10 0
3 -4 7 0
2 5 13 0
-4 -9 -10 0
1 2 16 0
1 2 -11 0
10 13 -14 0
-12 -16 -20 0
2 -6 14 0
-6 7 -17 0
-1 4 15 0
